90
12
0 12 14 15 19 20 23 24 29 30 31 33 34 35 36 37 38 39 41 46 52 54 56 57 61 63 65 66 67 69 70 71 73 75 77 78 79 82 83 85 87 88 89
1 13 14 15 16 18 20 21 22 24 27 29 30 32 34 35 36 37 39 41 43 44 45 46 47 48 49 50 51 52 53 57 61 62 63 68 70 72 73 74 75 77 78 79 82 83 84 85 86 87 88
2 12 13 16 18 20 23 24 26 29 30 31 32 34 35 36 37 39 41 46 50 56 57 58 59 61 62 63 64 67 68 70 72 74 77 78 79 82 83 85 86 87 88
3 12 14 15 16 18 22 23 28 29 30 32 33 34 35 37 38 41 43 46 52 54 58 59 60 61 65 67 70 71 73 74 75 76 78 79 82 83 87 88
4 12 13 14 15 16 19 20 24 28 29 30 33 36 37 38 39 45 46 47 49 54 56 60 63 64 65 68 73 75 76 77 78 79 82 84 85 86 88
5 12 13 14 15 18 19 21 30 32 34 35 37 38 39 40 43 45 49 50 51 52 55 56 57 59 61 62 63 66 67 71 72 73 74 77 79 80 83 85 88 89
6 12 17 18 19 20 21 25 26 27 32 36 38 41 45 46 49 51 53 56 58 64 65 67 68 70 75 80 82 83 84
7 14 16 26 29 31 35 39 41 43 45 47 50 51 52 53 57 58 59 61 63 65 70 73 74 75 76 77 80 84 85 87
8 15 16 18 19 21 23 24 26 29 30 31 35 38 40 47 53 54 55 68 72 75 81 84 86 88 89
9 12 14 19 20 28 32 41 42 48 49 55 58 60 68 72 76 85 89
10 13 39 42 53 54 62 63 64 71 81 85
11 65 85
